51
1 0 19
2 0 37
2 1 15
3 0 1
3 1 1
3 2 31
4 0 30
4 1 31
4 2 24
4 3 22
5 0 6
5 1 18
5 2 30
5 3 15
5 4 36
6 0 1
6 1 20
6 2 33
6 3 13
6 4 1
6 5 1
7 0 26
7 1 30
7 2 16
7 3 29
7 4 21
7 5 31
7 6 14
8 0 2
8 1 15
8 2 16
8 3 32
8 4 20
8 5 8
8 6 2
8 7 22
9 0 13
9 1 16
9 2 4
9 3 24
9 4 32
9 5 27
9 6 6
9 7 19
9 8 25
10 0 15
10 1 22
10 2 13
10 3 15
10 4 31
10 5 6
10 6 18
10 7 32
10 8 29
10 9 27
11 0 19
11 1 26
11 2 10
11 3 12
11 4 22
11 5 13
11 6 22
11 7 10
11 8 30
11 9 31
11 10 26
12 0 20
12 1 16
12 2 14
12 3 20
12 4 9
12 5 1
12 6 29
12 7 25
12 8 31
12 9 37
12 10 9
12 11 33
13 0 26
13 1 22
13 2 36
13 3 1
13 4 5
13 5 11
13 6 31
13 7 22
13 8 19
13 9 36
13 10 23
13 11 16
13 12 35
14 0 11
14 1 8
14 2 15
14 3 1
14 4 18
14 5 8
14 6 22
14 7 11
14 8 8
14 9 35
14 10 37
14 11 23
14 12 2
14 13 36
15 0 5
15 1 24
15 2 11
15 3 34
15 4 10
15 5 33
15 6 17
15 7 9
15 8 19
15 9 4
15 10 6
15 11 5
15 12 18
15 13 7
15 14 11
16 0 27
16 1 20
16 2 23
16 3 8
16 4 11
16 5 27
16 6 12
16 7 25
16 8 9
16 9 35
16 10 8
16 11 32
16 12 25
16 13 6
16 14 34
16 15 19
17 0 24
17 1 12
17 2 23
17 3 35
17 4 16
17 5 18
17 6 32
17 7 23
17 8 23
17 9 14
17 10 25
17 11 24
17 12 34
17 13 15
17 14 13
17 15 10
17 16 24
18 0 22
18 1 4
18 2 32
18 3 16
18 4 6
18 5 2
18 6 24
18 7 25
18 8 34
18 9 9
18 10 33
18 11 1
18 12 5
18 13 33
18 14 34
18 15 8
18 16 3
18 17 37
19 0 25
19 1 25
19 2 11
19 3 36
19 4 27
19 5 27
19 6 34
19 7 29
19 8 17
19 9 27
19 10 5
19 11 1
19 12 35
19 13 37
19 14 10
19 15 29
19 16 23
19 17 13
19 18 7
20 0 7
20 1 13
20 2 13
20 3 34
20 4 2
20 5 17
20 6 22
20 7 33
20 8 36
20 9 25
20 10 34
20 11 37
20 12 34
20 13 29
20 14 7
20 15 14
20 16 34
20 17 29
20 18 36
20 19 26
21 0 19
21 1 16
21 2 8
21 3 16
21 4 10
21 5 35
21 6 5
21 7 6
21 8 10
21 9 32
21 10 15
21 11 8
21 12 13
21 13 19
21 14 25
21 15 28
21 16 25
21 17 18
21 18 1
21 19 19
21 20 35
22 0 13
22 1 23
22 2 26
22 3 3
22 4 3
22 5 35
22 6 19
22 7 15
22 8 1
22 9 7
22 10 30
22 11 21
22 12 34
22 13 34
22 14 5
22 15 28
22 16 20
22 17 28
22 18 32
22 19 37
22 20 8
22 21 1
23 0 32
23 1 19
23 2 28
23 3 11
23 4 30
23 5 10
23 6 35
23 7 20
23 8 8
23 9 23
23 10 28
23 11 12
23 12 29
23 13 15
23 14 7
23 15 31
23 16 27
23 17 31
23 18 12
23 19 12
23 20 35
23 21 3
23 22 29
24 0 25
24 1 16
24 2 18
24 3 29
24 4 23
24 5 4
24 6 37
24 7 21
24 8 21
24 9 4
24 10 23
24 11 34
24 12 33
24 13 6
24 14 21
24 15 33
24 16 25
24 17 22
24 18 13
24 19 37
24 20 34
24 21 6
24 22 23
24 23 23
25 0 21
25 1 14
25 2 33
25 3 7
25 4 3
25 5 23
25 6 6
25 7 22
25 8 19
25 9 34
25 10 18
25 11 28
25 12 5
25 13 1
25 14 15
25 15 14
25 16 33
25 17 12
25 18 10
25 19 1
25 20 24
25 21 27
25 22 28
25 23 26
25 24 31
26 0 30
26 1 35
26 2 33
26 3 29
26 4 7
26 5 1
26 6 1
26 7 2
26 8 16
26 9 8
26 10 36
26 11 22
26 12 9
26 13 25
26 14 27
26 15 8
26 16 29
26 17 14
26 18 25
26 19 2
26 20 7
26 21 11
26 22 25
26 23 1
26 24 21
26 25 13
27 0 21
27 1 2
27 2 21
27 3 36
27 4 5
27 5 37
27 6 24
27 7 2
27 8 31
27 9 15
27 10 27
27 11 2
27 12 7
27 13 12
27 14 23
27 15 5
27 16 3
27 17 5
27 18 15
27 19 28
27 20 27
27 21 35
27 22 35
27 23 3
27 24 37
27 25 4
27 26 30
28 0 6
28 1 14
28 2 29
28 3 25
28 4 27
28 5 21
28 6 17
28 7 28
28 8 1
28 9 22
28 10 17
28 11 25
28 12 37
28 13 7
28 14 8
28 15 14
28 16 35
28 17 15
28 18 37
28 19 15
28 20 8
28 21 1
28 22 22
28 23 33
28 24 20
28 25 5
28 26 34
28 27 9
29 0 19
29 1 26
29 2 26
29 3 35
29 4 26
29 5 14
29 6 19
29 7 17
29 8 33
29 9 32
29 10 30
29 11 32
29 12 3
29 13 10
29 14 12
29 15 21
29 16 16
29 17 9
29 18 37
29 19 24
29 20 20
29 21 14
29 22 36
29 23 15
29 24 37
29 25 25
29 26 11
29 27 36
29 28 31
30 0 36
30 1 4
30 2 22
30 3 4
30 4 10
30 5 20
30 6 21
30 7 16
30 8 22
30 9 24
30 10 28
30 11 20
30 12 4
30 13 11
30 14 31
30 15 8
30 16 7
30 17 11
30 18 1
30 19 31
30 20 21
30 21 28
30 22 3
30 23 25
30 24 23
30 25 6
30 26 12
30 27 21
30 28 11
30 29 26
31 0 15
31 1 28
31 2 25
31 3 31
31 4 5
31 5 25
31 6 3
31 7 9
31 8 28
31 9 11
31 10 11
31 11 17
31 12 27
31 13 15
31 14 2
31 15 33
31 16 14
31 17 9
31 18 18
31 19 9
31 20 3
31 21 14
31 22 1
31 23 8
31 24 12
31 25 2
31 26 17
31 27 3
31 28 10
31 29 13
31 30 32
32 0 30
32 1 29
32 2 12
32 3 13
32 4 17
32 5 12
32 6 31
32 7 10
32 8 4
32 9 34
32 10 15
32 11 8
32 12 23
32 13 34
32 14 24
32 15 24
32 16 7
32 17 34
32 18 5
32 19 20
32 20 35
32 21 10
32 22 15
32 23 35
32 24 21
32 25 19
32 26 32
32 27 9
32 28 19
32 29 29
32 30 22
32 31 3
33 0 4
33 1 17
33 2 10
33 3 33
33 4 2
33 5 8
33 6 32
33 7 7
33 8 24
33 9 30
33 10 24
33 11 22
33 12 35
33 13 18
33 14 31
33 15 5
33 16 33
33 17 33
33 18 35
33 19 4
33 20 25
33 21 24
33 22 8
33 23 13
33 24 5
33 25 6
33 26 13
33 27 17
33 28 7
33 29 4
33 30 7
33 31 24
33 32 2
34 0 36
34 1 20
34 2 7
34 3 1
34 4 20
34 5 7
34 6 11
34 7 13
34 8 31
34 9 11
34 10 18
34 11 1
34 12 8
34 13 12
34 14 15
34 15 23
34 16 30
34 17 8
34 18 15
34 19 32
34 20 5
34 21 23
34 22 2
34 23 36
34 24 19
34 25 21
34 26 37
34 27 17
34 28 9
34 29 6
34 30 11
34 31 28
34 32 34
34 33 37
35 0 6
35 1 28
35 2 31
35 3 9
35 4 21
35 5 10
35 6 3
35 7 29
35 8 30
35 9 29
35 10 33
35 11 2
35 12 33
35 13 17
35 14 21
35 15 30
35 16 16
35 17 30
35 18 18
35 19 26
35 20 31
35 21 19
35 22 23
35 23 34
35 24 4
35 25 30
35 26 6
35 27 20
35 28 1
35 29 25
35 30 14
35 31 5
35 32 5
35 33 13
35 34 25
36 0 32
36 1 14
36 2 26
36 3 22
36 4 11
36 5 22
36 6 11
36 7 10
36 8 6
36 9 34
36 10 23
36 11 13
36 12 19
36 13 37
36 14 9
36 15 21
36 16 13
36 17 22
36 18 13
36 19 17
36 20 36
36 21 31
36 22 28
36 23 37
36 24 28
36 25 11
36 26 10
36 27 31
36 28 25
36 29 26
36 30 6
36 31 28
36 32 8
36 33 33
36 34 31
36 35 15
37 0 14
37 1 1
37 2 13
37 3 12
37 4 25
37 5 31
37 6 7
37 7 2
37 8 23
37 9 36
37 10 5
37 11 18
37 12 1
37 13 19
37 14 26
37 15 9
37 16 37
37 17 32
37 18 11
37 19 5
37 20 20
37 21 1
37 22 22
37 23 20
37 24 8
37 25 7
37 26 20
37 27 5
37 28 8
37 29 3
37 30 15
37 31 29
37 32 24
37 33 26
37 34 4
37 35 13
37 36 3
38 0 2
38 1 24
38 2 8
38 3 27
38 4 10
38 5 5
38 6 28
38 7 15
38 8 6
38 9 8
38 10 12
38 11 23
38 12 35
38 13 24
38 14 12
38 15 14
38 16 37
38 17 1
38 18 17
38 19 34
38 20 21
38 21 17
38 22 10
38 23 13
38 24 37
38 25 15
38 26 13
38 27 17
38 28 27
38 29 29
38 30 8
38 31 5
38 32 13
38 33 25
38 34 15
38 35 9
38 36 9
38 37 16
39 0 15
39 1 33
39 2 28
39 3 23
39 4 22
39 5 22
39 6 32
39 7 34
39 8 36
39 9 14
39 10 27
39 11 34
39 12 23
39 13 8
39 14 27
39 15 8
39 16 12
39 17 10
39 18 28
39 19 23
39 20 10
39 21 21
39 22 34
39 23 10
39 24 13
39 25 13
39 26 33
39 27 25
39 28 4
39 29 7
39 30 24
39 31 11
39 32 6
39 33 20
39 34 8
39 35 8
39 36 21
39 37 11
39 38 26
40 0 28
40 1 9
40 2 25
40 3 32
40 4 6
40 5 7
40 6 12
40 7 24
40 8 36
40 9 6
40 10 16
40 11 33
40 12 15
40 13 14
40 14 26
40 15 34
40 16 31
40 17 5
40 18 27
40 19 19
40 20 19
40 21 4
40 22 27
40 23 33
40 24 30
40 25 24
40 26 15
40 27 14
40 28 29
40 29 14
40 30 19
40 31 37
40 32 35
40 33 4
40 34 12
40 35 7
40 36 36
40 37 21
40 38 37
40 39 17
41 0 21
41 1 24
41 2 30
41 3 12
41 4 11
41 5 11
41 6 12
41 7 13
41 8 28
41 9 29
41 10 19
41 11 29
41 12 4
41 13 21
41 14 33
41 15 7
41 16 14
41 17 17
41 18 17
41 19 5
41 20 2
41 21 9
41 22 37
41 23 28
41 24 5
41 25 26
41 26 30
41 27 32
41 28 17
41 29 23
41 30 9
41 31 25
41 32 1
41 33 26
41 34 17
41 35 26
41 36 23
41 37 25
41 38 8
41 39 1
41 40 36
42 0 29
42 1 22
42 2 9
42 3 8
42 4 5
42 5 8
42 6 24
42 7 23
42 8 15
42 9 4
42 10 22
42 11 15
42 12 11
42 13 10
42 14 31
42 15 18
42 16 10
42 17 28
42 18 20
42 19 13
42 20 33
42 21 30
42 22 14
42 23 13
42 24 19
42 25 11
42 26 14
42 27 10
42 28 12
42 29 6
42 30 1
42 31 26
42 32 29
42 33 17
42 34 15
42 35 33
42 36 5
42 37 16
42 38 20
42 39 28
42 40 22
42 41 32
43 0 9
43 1 20
43 2 37
43 3 2
43 4 34
43 5 10
43 6 20
43 7 20
43 8 20
43 9 20
43 10 22
43 11 1
43 12 10
43 13 1
43 14 26
43 15 23
43 16 27
43 17 8
43 18 12
43 19 24
43 20 35
43 21 9
43 22 36
43 23 24
43 24 6
43 25 12
43 26 30
43 27 3
43 28 13
43 29 19
43 30 23
43 31 2
43 32 1
43 33 7
43 34 4
43 35 6
43 36 27
43 37 22
43 38 23
43 39 2
43 40 35
43 41 32
43 42 33
44 0 10
44 1 33
44 2 30
44 3 13
44 4 32
44 5 7
44 6 9
44 7 7
44 8 14
44 9 36
44 10 17
44 11 4
44 12 17
44 13 26
44 14 15
44 15 11
44 16 4
44 17 36
44 18 23
44 19 27
44 20 14
44 21 26
44 22 24
44 23 36
44 24 37
44 25 7
44 26 1
44 27 16
44 28 8
44 29 32
44 30 25
44 31 1
44 32 31
44 33 29
44 34 12
44 35 15
44 36 10
44 37 16
44 38 23
44 39 5
44 40 5
44 41 4
44 42 18
44 43 24
45 0 24
45 1 29
45 2 15
45 3 35
45 4 26
45 5 33
45 6 18
45 7 36
45 8 25
45 9 27
45 10 20
45 11 23
45 12 10
45 13 24
45 14 9
45 15 24
45 16 27
45 17 19
45 18 20
45 19 18
45 20 15
45 21 25
45 22 28
45 23 20
45 24 15
45 25 23
45 26 28
45 27 1
45 28 10
45 29 7
45 30 17
45 31 3
45 32 1
45 33 32
45 34 21
45 35 15
45 36 28
45 37 11
45 38 35
45 39 12
45 40 19
45 41 23
45 42 15
45 43 35
45 44 25
46 0 33
46 1 27
46 2 35
46 3 27
46 4 16
46 5 34
46 6 4
46 7 29
46 8 20
46 9 17
46 10 22
46 11 37
46 12 15
46 13 28
46 14 29
46 15 15
46 16 11
46 17 4
46 18 33
46 19 7
46 20 10
46 21 33
46 22 29
46 23 26
46 24 10
46 25 30
46 26 33
46 27 33
46 28 2
46 29 15
46 30 29
46 31 17
46 32 14
46 33 13
46 34 7
46 35 15
46 36 19
46 37 26
46 38 11
46 39 21
46 40 31
46 41 22
46 42 18
46 43 18
46 44 9
46 45 8
47 0 11
47 1 4
47 2 23
47 3 15
47 4 29
47 5 2
47 6 13
47 7 26
47 8 30
47 9 35
47 10 34
47 11 20
47 12 1
47 13 31
47 14 37
47 15 36
47 16 7
47 17 6
47 18 16
47 19 4
47 20 20
47 21 22
47 22 12
47 23 37
47 24 6
47 25 30
47 26 22
47 27 32
47 28 20
47 29 23
47 30 16
47 31 29
47 32 27
47 33 21
47 34 31
47 35 9
47 36 32
47 37 24
47 38 24
47 39 11
47 40 37
47 41 29
47 42 21
47 43 36
47 44 20
47 45 3
47 46 32
48 0 15
48 1 19
48 2 9
48 3 13
48 4 27
48 5 20
48 6 24
48 7 5
48 8 29
48 9 24
48 10 23
48 11 27
48 12 6
48 13 21
48 14 12
48 15 11
48 16 32
48 17 26
48 18 8
48 19 6
48 20 4
48 21 29
48 22 27
48 23 37
48 24 24
48 25 29
48 26 31
48 27 33
48 28 35
48 29 30
48 30 29
48 31 28
48 32 21
48 33 21
48 34 29
48 35 21
48 36 12
48 37 18
48 38 32
48 39 6
48 40 17
48 41 27
48 42 30
48 43 35
48 44 6
48 45 1
48 46 4
48 47 14
49 0 11
49 1 10
49 2 13
49 3 20
49 4 25
49 5 32
49 6 12
49 7 27
49 8 3
49 9 26
49 10 31
49 11 1
49 12 32
49 13 32
49 14 3
49 15 16
49 16 24
49 17 30
49 18 2
49 19 28
49 20 3
49 21 12
49 22 9
49 23 24
49 24 22
49 25 20
49 26 25
49 27 4
49 28 36
49 29 7
49 30 33
49 31 22
49 32 32
49 33 11
49 34 34
49 35 27
49 36 20
49 37 12
49 38 21
49 39 30
49 40 29
49 41 19
49 42 8
49 43 29
49 44 19
49 45 29
49 46 29
49 47 24
49 48 22
50 0 18
50 1 7
50 2 5
50 3 34
50 4 36
50 5 6
50 6 4
50 7 19
50 8 20
50 9 18
50 10 11
50 11 34
50 12 11
50 13 23
50 14 12
50 15 7
50 16 18
50 17 36
50 18 22
50 19 31
50 20 13
50 21 9
50 22 1
50 23 24
50 24 15
50 25 31
50 26 31
50 27 23
50 28 20
50 29 4
50 30 12
50 31 37
50 32 29
50 33 35
50 34 18
50 35 3
50 36 18
50 37 36
50 38 13
50 39 2
50 40 24
50 41 12
50 42 2
50 43 37
50 44 27
50 45 33
50 46 25
50 47 6
50 48 19
50 49 20
